outputs/case_422.model.txt
derivative_operation_system_established = True
internal_control_system_established = True
derivative_operation_system_executed = True
internal_handling_system_established = True
internal_handling_system_executed = True
internal_control_system_executed = True
internal_operation_system_executed = True
internal_operation_system_established = True
internal_operation_executed = True
internal_handling_established = True
derivative_operation_established = True
derivative_operation_ok = True
internal_operation_ok = True
internal_handling_ok = True
internal_systems_compliance = True
internal_control_executed = True
penalty = False
derivative_operation_executed = True
internal_control_established = True
internal_handling_executed = True
internal_operation_established = True
internal_control_ok = True